
Gurobi 6.5.2 (linux64) logging started Sun Sep 18 18:40:56 2016


Gurobi 6.5.2 (linux64) logging started Sun Sep 18 18:40:56 2016

Optimize a model with 21 rows, 33 columns and 69 nonzeros
Coefficient statistics:
  Matrix range    [1e+00, 2e+00]
  Objective range [1e+00, 9e+01]
  Bounds range    [1e+00, 1e+00]
  RHS range       [1e+00, 1e+00]
Found heuristic solution: objective 439
Presolve removed 10 rows and 8 columns
Presolve time: 0.00s
Presolved: 11 rows, 25 columns, 50 nonzeros
Variable types: 0 continuous, 25 integer (25 binary)

Root relaxation: objective 3.205000e+02, 10 iterations, 0.00 seconds

    Nodes    |    Current Node    |     Objective Bounds      |     Work
 Expl Unexpl |  Obj  Depth IntInf | Incumbent    BestBd   Gap | It/Node Time

     0     0  320.50000    0    4  439.00000  320.50000  27.0%     -    0s
H    0     0                     409.0000000  320.50000  21.6%     -    0s
H    0     0                     326.0000000  320.50000  1.69%     -    0s

Cutting planes:
  Gomory: 1

Explored 0 nodes (10 simplex iterations) in 0.00 seconds
Thread count was 8 (of 8 available processors)

Optimal solution found (tolerance 1.00e-04)
Best objective 3.260000000000e+02, best bound 3.260000000000e+02, gap 0.0%
